Traveling Salesman Problem/TSP_generados/Aleatorio1620390880_6.tsp
NAME: Aleatorio1620390880_6.tsp
COMMENT: Randomly generated scenario
TYPE: TSP
DIMENSION: 6
EDGE_WEIGHT_TYPE: ATT
NODE_COORD_SECTION
1 15.46 18.92
2 42.56 1.71
3 17.4 19.71
4 3.65 36.98
5 1.34 31.65
6 47.23 37.25
