Traveling Salesman Problem/TSP_generados/Aleatorio1620390880_6.opt.tour
NAME: Aleatorio1620390880_6.opt.tour
COMMENT: Optimal solution for Aleatorio1620390880_6 (137.27714535826232)
TYPE: TOUR
DIMENSION: 6
TOUR_SECTION
1 3 2 6 4 5
-1
EOF
